RST06
Position Depot: Center
Horizon for Depot: Small
Position of customers: Random
Distribution of the demand: Medium
Width of time windows: Tight
Distribution of the service: Large

VEHICLE 
NUMBER 	 CAPACITY 
 9 	 	 261 
 
CUSTOMER
CUST NO. 	 XCOORD.  	 YCOORD. 	 DEMAND 	 READY TIME 	 DUE DATE 	 SERVICE TIME 
 0 	 	 500 	 	 500 	 	 0 	 	 0 	 	 1878 	 	 0 
  1 	 	 215 	 	 117 	 	 10 	 	 373 	 	 525 	 	 152 
  2 	 	 195 	 	 746 	 	 2 	 	 1449 	 	 1608 	 	 105 
  3 	 	 381 	 	 415 	 	 2 	 	 1251 	 	 1337 	 	 180 
  4 	 	 528 	 	 974 	 	 58 	 	 434 	 	 522 	 	 149 
  5 	 	 634 	 	 466 	 	 8 	 	 1083 	 	 1227 	 	 133 
  6 	 	 54 	 	 485 	 	 7 	 	 1225 	 	 1371 	 	 164 
  7 	 	 660 	 	 105 	 	 54 	 	 926 	 	 1050 	 	 105 
  8 	 	 620 	 	 722 	 	 5 	 	 1140 	 	 1234 	 	 103 
  9 	 	 985 	 	 870 	 	 52 	 	 1251 	 	 1354 	 	 190 
  10 	 	 503 	 	 31 	 	 81 	 	 1742 	 	 1878 	 	 162 
  11 	 	 301 	 	 473 	 	 3 	 	 1708 	 	 1838 	 	 142 
  12 	 	 410 	 	 308 	 	 85 	 	 111 	 	 233 	 	 189 
  13 	 	 498 	 	 524 	 	 63 	 	 780 	 	 842 	 	 143 
  14 	 	 416 	 	 595 	 	 9 	 	 1533 	 	 1617 	 	 187 
  15 	 	 551 	 	 906 	 	 3 	 	 307 	 	 450 	 	 110 
  16 	 	 935 	 	 658 	 	 85 	 	 351 	 	 509 	 	 158 
  17 	 	 987 	 	 463 	 	 85 	 	 801 	 	 987 	 	 181 
  18 	 	 86 	 	 556 	 	 50 	 	 352 	 	 459 	 	 126 
  19 	 	 957 	 	 115 	 	 9 	 	 1241 	 	 1421 	 	 145 
  20 	 	 852 	 	 904 	 	 97 	 	 444 	 	 589 	 	 119 
  21 	 	 676 	 	 539 	 	 54 	 	 865 	 	 1052 	 	 165 
  22 	 	 270 	 	 359 	 	 3 	 	 1569 	 	 1682 	 	 119 
  23 	 	 857 	 	 896 	 	 78 	 	 1600 	 	 1651 	 	 140 
  24 	 	 749 	 	 677 	 	 2 	 	 823 	 	 977 	 	 153 
  25 	 	 541 	 	 49 	 	 4 	 	 1331 	 	 1526 	 	 179 
  26 	 	 159 	 	 407 	 	 76 	 	 306 	 	 388 	 	 191 
  27 	 	 601 	 	 422 	 	 5 	 	 839 	 	 898 	 	 157 
  28 	 	 58 	 	 411 	 	 2 	 	 1062 	 	 1221 	 	 140 
  29 	 	 157 	 	 97 	 	 5 	 	 531 	 	 582 	 	 116 
  30 	 	 975 	 	 430 	 	 55 	 	 1690 	 	 1878 	 	 144 
  31 	 	 321 	 	 992 	 	 2 	 	 509 	 	 575 	 	 159 
  32 	 	 526 	 	 415 	 	 4 	 	 1663 	 	 1858 	 	 161 
  33 	 	 143 	 	 894 	 	 3 	 	 1623 	 	 1678 	 	 143 
  34 	 	 995 	 	 687 	 	 7 	 	 659 	 	 805 	 	 176 
  35 	 	 538 	 	 267 	 	 3 	 	 876 	 	 1024 	 	 139 
  36 	 	 303 	 	 375 	 	 10 	 	 712 	 	 827 	 	 111 
  37 	 	 153 	 	 532 	 	 4 	 	 658 	 	 842 	 	 200 
  38 	 	 823 	 	 282 	 	 6 	 	 1333 	 	 1413 	 	 147 
  39 	 	 38 	 	 730 	 	 50 	 	 429 	 	 567 	 	 174 
  40 	 	 385 	 	 12 	 	 8 	 	 425 	 	 551 	 	 177 
  41 	 	 993 	 	 612 	 	 5 	 	 716 	 	 855 	 	 173 
  42 	 	 258 	 	 989 	 	 9 	 	 917 	 	 1055 	 	 152 
  43 	 	 255 	 	 920 	 	 4 	 	 1090 	 	 1189 	 	 185 
  44 	 	 849 	 	 242 	 	 1 	 	 786 	 	 857 	 	 122 
  45 	 	 214 	 	 568 	 	 5 	 	 1261 	 	 1348 	 	 158 
  46 	 	 562 	 	 256 	 	 59 	 	 361 	 	 556 	 	 135 
  47 	 	 169 	 	 94 	 	 5 	 	 759 	 	 952 	 	 131 
  48 	 	 262 	 	 789 	 	 2 	 	 304 	 	 411 	 	 119 
  49 	 	 54 	 	 647 	 	 2 	 	 408 	 	 583 	 	 182 
  50 	 	 93 	 	 288 	 	 9 	 	 874 	 	 1036 	 	 168 
  51 	 	 715 	 	 597 	 	 3 	 	 1485 	 	 1622 	 	 187 
  52 	 	 317 	 	 778 	 	 3 	 	 242 	 	 366 	 	 165 
  53 	 	 890 	 	 230 	 	 7 	 	 366 	 	 521 	 	 122 
  54 	 	 493 	 	 56 	 	 7 	 	 803 	 	 878 	 	 200 
  55 	 	 640 	 	 752 	 	 4 	 	 1699 	 	 1762 	 	 174 
  56 	 	 36 	 	 637 	 	 7 	 	 614 	 	 725 	 	 162 
  57 	 	 937 	 	 513 	 	 8 	 	 573 	 	 771 	 	 127 
  58 	 	 730 	 	 710 	 	 3 	 	 1081 	 	 1160 	 	 155 
  59 	 	 978 	 	 331 	 	 2 	 	 926 	 	 1018 	 	 149 
  60 	 	 273 	 	 353 	 	 7 	 	 927 	 	 1099 	 	 198 
  61 	 	 706 	 	 596 	 	 4 	 	 909 	 	 1092 	 	 139 
  62 	 	 883 	 	 906 	 	 8 	 	 1525 	 	 1639 	 	 110 
  63 	 	 102 	 	 388 	 	 51 	 	 317 	 	 454 	 	 104 
  64 	 	 568 	 	 985 	 	 2 	 	 792 	 	 892 	 	 113 
  65 	 	 842 	 	 320 	 	 8 	 	 226 	 	 425 	 	 155 
  66 	 	 519 	 	 348 	 	 4 	 	 1649 	 	 1837 	 	 186 
  67 	 	 757 	 	 583 	 	 3 	 	 1055 	 	 1196 	 	 120 
  68 	 	 912 	 	 52 	 	 3 	 	 1294 	 	 1402 	 	 124 
  69 	 	 270 	 	 1 	 	 9 	 	 1242 	 	 1424 	 	 128 
  70 	 	 342 	 	 356 	 	 1 	 	 419 	 	 515 	 	 134 
  71 	 	 815 	 	 986 	 	 95 	 	 1381 	 	 1506 	 	 152 
  72 	 	 570 	 	 402 	 	 9 	 	 295 	 	 495 	 	 120 
  73 	 	 124 	 	 22 	 	 5 	 	 1114 	 	 1183 	 	 200 
  74 	 	 300 	 	 55 	 	 1 	 	 458 	 	 536 	 	 108 
  75 	 	 816 	 	 537 	 	 9 	 	 1540 	 	 1618 	 	 158 
  76 	 	 981 	 	 875 	 	 5 	 	 1061 	 	 1243 	 	 198 
  77 	 	 173 	 	 831 	 	 5 	 	 326 	 	 511 	 	 100 
  78 	 	 763 	 	 854 	 	 1 	 	 1667 	 	 1836 	 	 182 
  79 	 	 458 	 	 498 	 	 53 	 	 1698 	 	 1786 	 	 187 
  80 	 	 27 	 	 932 	 	 7 	 	 633 	 	 704 	 	 135 
  81 	 	 754 	 	 388 	 	 78 	 	 1256 	 	 1317 	 	 180 
  82 	 	 504 	 	 26 	 	 58 	 	 436 	 	 558 	 	 199 
  83 	 	 144 	 	 18 	 	 75 	 	 980 	 	 1037 	 	 130 
  84 	 	 959 	 	 470 	 	 1 	 	 1103 	 	 1178 	 	 199 
  85 	 	 483 	 	 354 	 	 73 	 	 975 	 	 1116 	 	 145 
  86 	 	 220 	 	 71 	 	 3 	 	 594 	 	 781 	 	 157 
  87 	 	 155 	 	 266 	 	 93 	 	 1484 	 	 1659 	 	 195 
  88 	 	 127 	 	 842 	 	 78 	 	 485 	 	 556 	 	 100 
  89 	 	 217 	 	 586 	 	 3 	 	 677 	 	 854 	 	 157 
  90 	 	 437 	 	 138 	 	 81 	 	 748 	 	 852 	 	 112 
  91 	 	 844 	 	 744 	 	 95 	 	 648 	 	 804 	 	 111 
  92 	 	 272 	 	 547 	 	 70 	 	 117 	 	 256 	 	 102 
  93 	 	 101 	 	 163 	 	 1 	 	 418 	 	 574 	 	 168 
  94 	 	 760 	 	 568 	 	 6 	 	 1696 	 	 1878 	 	 138 
  95 	 	 745 	 	 811 	 	 5 	 	 304 	 	 435 	 	 150 
  96 	 	 382 	 	 41 	 	 1 	 	 588 	 	 746 	 	 187 
  97 	 	 883 	 	 113 	 	 3 	 	 1640 	 	 1811 	 	 195 
  98 	 	 22 	 	 958 	 	 2 	 	 624 	 	 818 	 	 143 
  99 	 	 153 	 	 171 	 	 5 	 	 929 	 	 1098 	 	 119 
  100 	 	 935 	 	 496 	 	 52 	 	 638 	 	 776 	 	 194 
 